language ESSENCE' 1.0

letting jobs = 102
letting horizon = 817
letting resourcesRenew = 2
letting resourcesNonrenew = 2
letting resourceLimits = [21, 18, 371, 393]
letting successors = [[2, 3, 4, 6, 8, 10], [27, 18, 14, 13, 12, 7, 5], [27, 26, 23, 18, 16, 13, 11], [27, 26, 23, 21, 19, 18, 13], [16, 11, 9], [27, 24, 22, 19, 18, 17, 16], [26, 23, 16, 15, 11], [34, 27, 26, 25, 24, 16], [25, 23, 22, 20, 17], [27, 25, 24, 21, 17], [34, 31, 24, 22, 20, 19], [34, 31, 24, 21, 20, 19], [31, 30, 22, 20, 15], [35, 30, 28, 23, 22, 21], [34, 33, 29, 25, 24], [35, 30, 21, 20], [34, 33, 32, 31, 29, 26], [35, 34, 32, 30, 29, 28], [36, 30, 29, 25], [43, 41, 33, 32, 29, 28], [43, 41, 36, 32, 29], [45, 44, 41, 40, 37, 33], [43, 41, 36, 34, 29], [41, 37, 32, 28], [45, 44, 40, 39, 38, 37, 35], [45, 40, 38, 30], [43, 29], [55, 52, 51, 47, 46, 45, 40, 36], [55, 52, 51, 50, 49, 47, 46, 45, 42, 40, 39], [51, 50, 49, 42, 41, 39, 37], [55, 52, 43, 39, 36], [60, 55, 54, 52, 51, 49, 47, 46, 44, 40], [51, 47, 39, 36], [47, 39, 38], [63, 60, 56, 54, 52, 49, 43], [38], [60, 59, 56, 55, 54, 53, 47, 46], [59, 54, 50, 49, 42], [71, 67, 63, 61, 60, 57, 56, 54, 53], [67, 63, 61, 59, 56, 53, 48], [67, 63, 61, 56, 52, 48], [71, 67, 63, 61, 60, 58, 56, 53], [59, 58, 53, 51, 47], [70, 59, 50, 48], [79, 71, 70, 66, 63, 62, 61, 58, 57], [79, 75, 71, 70, 68, 67, 66, 63, 58, 57], [79, 72, 71, 70, 69, 66, 62, 61, 57], [79, 75, 71, 68, 66, 58, 57], [79, 77, 75, 71, 70, 68, 67, 64, 58], [79, 75, 72, 71, 66, 61, 57], [79, 71, 69, 68, 66, 62, 57], [79, 75, 70, 66, 58, 57], [79, 77, 74, 72, 70, 69, 68, 65, 62], [83, 79, 77, 75, 74, 70, 65, 58], [79, 78, 77, 72, 70, 61], [82, 79, 69, 66, 62], [81, 78, 77, 74, 65, 64], [87, 85, 82, 81, 80, 76, 73, 72, 69], [87, 85, 83, 81, 77, 74, 73, 69], [86, 77, 75, 65], [81, 68, 64], [101, 87, 86, 83, 78, 76, 75, 73], [101, 87, 86, 85, 78, 77, 76, 73], [101, 98, 88, 87, 86, 85, 83, 82, 80, 73], [101, 98, 90, 87, 85, 82, 80, 76, 73], [99, 88, 86, 85, 81, 77, 74], [99, 88, 86, 85, 81, 80, 74], [100, 99, 98, 90, 86, 84, 83, 76], [101, 99, 97, 96, 93, 86, 78], [100, 99, 98, 97, 88, 84, 80], [99, 98, 97, 96, 95, 90, 88, 84, 81], [100, 99, 98, 96, 95, 94, 90, 89, 84], [100, 99, 97, 96, 95, 94, 89, 84], [101, 98, 97, 96, 95, 94, 93, 92, 90], [100, 85, 81, 80], [97, 96, 95, 94, 93, 92, 88], [97, 93, 92, 89, 80], [98, 94, 92, 90, 88], [98, 95, 81], [96, 95, 94, 91], [93, 92, 91], [97, 92, 91], [93, 89], [93, 92], [94, 92], [92, 91], [93, 91], [89], [91], [91], [102], [102], [102], [102], [102], [102], [102], [102], [102], [102], [102], []]
letting durations = [[0], [1, 1, 5], [1, 5, 6], [6, 7, 9], [1, 3, 6], [2, 6, 8], [3, 5, 5], [3, 7, 7], [4, 7, 9], [4, 5, 8], [2, 9, 10], [1, 4, 9], [4, 7, 7], [3, 4, 9], [3, 4, 10], [1, 2, 4], [3, 6, 7], [4, 6, 8], [3, 6, 7], [4, 6, 6], [5, 9, 10], [2, 7, 10], [4, 5, 8], [2, 2, 10], [3, 5, 8], [1, 4, 8], [1, 2, 9], [1, 6, 8], [5, 6, 8], [2, 5, 9], [5, 7, 8], [3, 5, 8], [4, 6, 10], [5, 6, 6], [3, 4, 10], [7, 9, 10], [8, 9, 10], [4, 4, 7], [1, 8, 10], [2, 8, 10], [6, 8, 10], [1, 3, 7], [1, 2, 10], [2, 8, 9], [1, 4, 4], [1, 1, 8], [3, 6, 8], [1, 6, 9], [4, 5, 10], [2, 8, 9], [2, 9, 10], [5, 5, 8], [4, 5, 10], [5, 6, 10], [3, 4, 9], [1, 6, 9], [2, 7, 9], [3, 6, 10], [1, 3, 6], [1, 7, 9], [1, 4, 7], [6, 7, 10], [6, 7, 9], [4, 5, 5], [1, 9, 10], [2, 4, 9], [3, 4, 9], [1, 2, 4], [2, 3, 7], [3, 3, 7], [3, 6, 9], [4, 7, 9], [1, 6, 7], [1, 4, 8], [1, 5, 9], [3, 6, 9], [3, 3, 8], [5, 9, 9], [3, 6, 8], [2, 9, 10], [3, 4, 10], [1, 4, 9], [4, 8, 9], [1, 4, 7], [5, 6, 6], [5, 8, 9], [1, 1, 2], [7, 8, 10], [4, 5, 5], [6, 8, 10], [1, 2, 6], [1, 4, 9], [2, 5, 7], [7, 8, 9], [1, 4, 5], [1, 4, 4], [1, 8, 10], [3, 7, 10], [4, 5, 7], [4, 9, 10], [1, 2, 9], [0]]
letting resourceUsage = [[[0, 0, 0, 0]], [[0, 1, 7, 0], [3, 0, 0, 5], [3, 0, 0, 4]], [[2, 0, 0, 7], [2, 0, 0, 6], [2, 0, 4, 0]], [[0, 4, 4, 0], [0, 3, 4, 0], [0, 2, 3, 0]], [[1, 0, 0, 8], [0, 3, 5, 0], [0, 3, 4, 0]], [[0, 1, 0, 9], [0, 1, 0, 6], [3, 0, 0, 4]], [[0, 2, 0, 10], [0, 2, 0, 9], [0, 2, 6, 0]], [[0, 4, 5, 0], [0, 4, 0, 6], [1, 0, 0, 4]], [[4, 0, 0, 6], [0, 2, 0, 2], [0, 2, 5, 0]], [[5, 0, 1, 0], [0, 3, 1, 0], [2, 0, 1, 0]], [[4, 0, 3, 0], [4, 0, 0, 2], [4, 0, 1, 0]], [[0, 4, 0, 2], [0, 4, 0, 1], [0, 4, 5, 0]], [[0, 5, 8, 0], [0, 5, 0, 3], [2, 0, 0, 1]], [[2, 0, 0, 8], [0, 2, 3, 0], [0, 1, 0, 2]], [[0, 5, 0, 9], [0, 2, 0, 6], [1, 0, 3, 0]], [[5, 0, 6, 0], [0, 2, 0, 6], [0, 1, 5, 0]], [[5, 0, 0, 3], [0, 1, 4, 0], [0, 1, 2, 0]], [[0, 3, 0, 6], [0, 2, 0, 4], [0, 1, 0, 4]], [[0, 2, 0, 7], [1, 0, 6, 0], [1, 0, 0, 6]], [[0, 4, 8, 0], [0, 3, 8, 0], [3, 0, 7, 0]], [[0, 4, 8, 0], [0, 4, 0, 7], [0, 2, 5, 0]], [[0, 2, 10, 0], [2, 0, 8, 0], [0, 1, 0, 4]], [[1, 0, 0, 5], [1, 0, 0, 4], [0, 3, 0, 2]], [[0, 4, 4, 0], [0, 2, 0, 8], [4, 0, 3, 0]], [[0, 3, 9, 0], [4, 0, 0, 8], [4, 0, 0, 7]], [[3, 0, 0, 4], [0, 2, 5, 0], [1, 0, 0, 2]], [[0, 4, 5, 0], [5, 0, 0, 5], [5, 0, 0, 4]], [[0, 5, 0, 4], [0, 4, 3, 0], [1, 0, 3, 0]], [[4, 0, 0, 9], [3, 0, 3, 0], [2, 0, 3, 0]], [[0, 4, 10, 0], [0, 4, 7, 0], [0, 3, 3, 0]], [[5, 0, 0, 5], [4, 0, 0, 4], [0, 2, 0, 3]], [[0, 4, 2, 0], [4, 0, 0, 4], [0, 4, 1, 0]], [[4, 0, 0, 4], [0, 3, 0, 4], [0, 3, 7, 0]], [[0, 1, 0, 9], [4, 0, 0, 4], [0, 1, 0, 2]], [[1, 0, 6, 0], [0, 2, 0, 3], [1, 0, 0, 2]], [[3, 0, 3, 0], [3, 0, 0, 4], [2, 0, 2, 0]], [[1, 0, 6, 0], [0, 2, 0, 8], [0, 2, 3, 0]], [[3, 0, 4, 0], [0, 2, 0, 5], [0, 1, 2, 0]], [[3, 0, 4, 0], [3, 0, 0, 9], [0, 3, 4, 0]], [[0, 3, 9, 0], [0, 3, 0, 5], [0, 3, 0, 3]], [[2, 0, 7, 0], [0, 5, 7, 0], [0, 5, 0, 4]], [[2, 0, 5, 0], [1, 0, 4, 0], [0, 4, 4, 0]], [[3, 0, 0, 8], [3, 0, 0, 6], [0, 3, 0, 6]], [[0, 1, 8, 0], [0, 1, 0, 8], [1, 0, 8, 0]], [[0, 2, 5, 0], [1, 0, 5, 0], [0, 1, 0, 6]], [[0, 4, 0, 9], [0, 4, 5, 0], [0, 2, 0, 8]], [[2, 0, 10, 0], [0, 2, 9, 0], [0, 2, 0, 3]], [[5, 0, 6, 0], [4, 0, 6, 0], [3, 0, 0, 6]], [[4, 0, 1, 0], [4, 0, 0, 8], [0, 1, 1, 0]], [[0, 3, 8, 0], [2, 0, 0, 5], [0, 1, 7, 0]], [[0, 5, 9, 0], [3, 0, 7, 0], [2, 0, 6, 0]], [[0, 3, 0, 5], [1, 0, 0, 4], [1, 0, 4, 0]], [[3, 0, 6, 0], [0, 2, 0, 3], [2, 0, 0, 3]], [[2, 0, 0, 7], [0, 3, 0, 6], [0, 3, 9, 0]], [[0, 3, 8, 0], [0, 3, 0, 3], [2, 0, 0, 2]], [[4, 0, 6, 0], [2, 0, 5, 0], [2, 0, 4, 0]], [[0, 2, 0, 5], [3, 0, 0, 4], [0, 1, 0, 2]], [[0, 2, 9, 0], [0, 1, 8, 0], [3, 0, 0, 4]], [[4, 0, 5, 0], [0, 2, 0, 2], [4, 0, 3, 0]], [[4, 0, 0, 6], [0, 5, 9, 0], [0, 5, 0, 4]], [[2, 0, 4, 0], [0, 2, 0, 6], [2, 0, 2, 0]], [[0, 5, 0, 10], [0, 4, 1, 0], [0, 4, 0, 10]], [[5, 0, 0, 8], [0, 4, 0, 4], [4, 0, 8, 0]], [[1, 0, 0, 5], [0, 2, 3, 0], [1, 0, 0, 2]], [[0, 3, 0, 2], [0, 3, 0, 1], [3, 0, 0, 2]], [[0, 4, 0, 7], [3, 0, 4, 0], [0, 3, 4, 0]], [[0, 5, 0, 7], [0, 3, 5, 0], [5, 0, 0, 7]], [[5, 0, 0, 8], [4, 0, 0, 6], [2, 0, 1, 0]], [[1, 0, 0, 8], [0, 2, 0, 6], [1, 0, 0, 5]], [[1, 0, 7, 0], [0, 2, 5, 0], [1, 0, 0, 7]], [[0, 4, 0, 7], [0, 4, 7, 0], [0, 4, 0, 4]], [[0, 2, 0, 7], [0, 2, 8, 0], [3, 0, 7, 0]], [[0, 4, 0, 4], [0, 2, 0, 4], [0, 1, 8, 0]], [[0, 3, 0, 10], [3, 0, 3, 0], [0, 3, 0, 9]], [[5, 0, 2, 0], [3, 0, 2, 0], [3, 0, 0, 6]], [[2, 0, 0, 9], [2, 0, 0, 8], [2, 0, 3, 0]], [[1, 0, 0, 4], [0, 2, 0, 3], [1, 0, 0, 2]], [[0, 2, 0, 6], [3, 0, 5, 0], [0, 2, 0, 5]], [[4, 0, 0, 2], [0, 2, 4, 0], [1, 0, 4, 0]], [[1, 0, 0, 8], [0, 1, 3, 0], [0, 1, 0, 3]], [[1, 0, 4, 0], [0, 2, 2, 0], [0, 1, 1, 0]], [[0, 5, 3, 0], [0, 5, 2, 0], [0, 5, 1, 0]], [[0, 3, 0, 5], [3, 0, 2, 0], [0, 3, 1, 0]], [[0, 5, 0, 7], [0, 3, 5, 0], [4, 0, 5, 0]], [[4, 0, 9, 0], [4, 0, 8, 0], [0, 1, 0, 2]], [[1, 0, 6, 0], [1, 0, 0, 2], [0, 2, 4, 0]], [[0, 3, 2, 0], [3, 0, 2, 0], [0, 2, 2, 0]], [[4, 0, 0, 7], [3, 0, 8, 0], [3, 0, 7, 0]], [[4, 0, 8, 0], [3, 0, 8, 0], [0, 3, 8, 0]], [[0, 2, 0, 5], [0, 2, 6, 0], [4, 0, 0, 3]], [[5, 0, 7, 0], [4, 0, 3, 0], [0, 2, 0, 2]], [[0, 3, 0, 6], [1, 0, 0, 5], [0, 3, 7, 0]], [[5, 0, 0, 8], [4, 0, 0, 7], [0, 1, 2, 0]], [[0, 1, 0, 9], [4, 0, 4, 0], [0, 1, 2, 0]], [[0, 3, 6, 0], [1, 0, 5, 0], [0, 2, 0, 3]], [[1, 0, 4, 0], [0, 5, 3, 0], [1, 0, 0, 2]], [[4, 0, 0, 6], [0, 2, 5, 0], [0, 1, 0, 2]], [[5, 0, 5, 0], [4, 0, 0, 5], [3, 0, 3, 0]], [[4, 0, 0, 6], [2, 0, 0, 4], [0, 3, 0, 1]], [[0, 3, 6, 0], [0, 3, 5, 0], [3, 0, 3, 0]], [[0, 2, 0, 9], [0, 2, 0, 8], [3, 0, 5, 0]], [[0, 0, 0, 0]]]
